
Gurobi 10.0.1 (linux64) logging started Sun Nov 26 15:42:57 2023

Set parameter LogFile to value "ArtificialInstance/ExperimentV2/S3T3K2/AdRo/gurobiSpRo27.txt"
Gurobi Optimizer version 10.0.1 build v10.0.1rc0 (linux64)

CPU model: AMD EPYC 7H12 64-Core Processor, instruction set [SSE2|AVX|AVX2]
Thread count: 128 physical cores, 128 logical processors, using up to 32 threads

Academic license 656792 - for non-commercial use only - registered to b.___@student.vu.nl
Optimize a model with 6867 rows, 6733 columns and 26023 nonzeros
Model fingerprint: 0x0ddfa13d
Variable types: 1 continuous, 6732 integer (6732 binary)
Coefficient statistics:
  Matrix range     [1e+00, 4e+01]
  Objective range  [1e+00, 2e+01]
  Bounds range     [1e+00, 1e+00]
  RHS range        [1e+00, 1e+00]
Presolve removed 2677 rows and 2493 columns
Presolve time: 0.07s
Presolved: 4190 rows, 4240 columns, 16328 nonzeros
Variable types: 1 continuous, 4239 integer (4239 binary)
Found heuristic solution: objective 101.5796330

Root relaxation: objective 7.696390e+01, 1134 iterations, 0.03 seconds (0.02 work units)

    Nodes    |    Current Node    |     Objective Bounds      |     Work
 Expl Unexpl |  Obj  Depth IntInf | Incumbent    BestBd   Gap | It/Node Time

     0     0   76.96390    0   30  101.57963   76.96390  24.2%     -    0s
H    0     0                      76.9638981   76.96390  0.00%     -    0s
     0     0   76.96390    0   30   76.96390   76.96390  0.00%     -    0s

Explored 1 nodes (2078 simplex iterations) in 0.17 seconds (0.12 work units)
Thread count was 32 (of 128 available processors)

Solution count 2: 76.9639 101.58 

Optimal solution found (tolerance 1.00e-04)
Best objective 7.696389805092e+01, best bound 7.696389805092e+01, gap 0.0000%
